9999	98	33	29	34	95	64	60	76	6	88
89	9999	94	47	39	89	27	58	4	28	61
12	41	9999	48	82	63	19	51	81	19	12
12	93	35	9999	32	89	5	38	90	99	12
53	35	0	43	9999	32	50	66	13	41	5
46	75	81	38	39	9999	72	77	65	81	35
34	1	84	7	39	18	9999	37	3	11	72
19	83	36	33	23	58	50	9999	69	20	34
25	22	74	81	77	3	58	60	9999	73	14
26	77	87	81	51	84	83	2	21	9999	15
87	90	80	54	26	71	49	28	70	45	9999
